c
c Renamed file of C17.cnf 
c Variables are renamed according to left2right.ord 
c
c Date: Thu Apr 29 14:47:12 PDT 2004 by (jinbo)
c Host: Linux solution 2.4.18-4smp #1 SMP Thu May 2 18:32:34 EDT 2002 i686 unknown
c
c Copyright (c) 2001 Fadi A. Aloul.
c
p cnf 17 30
3 -6 0
5 -6 0
6 -3 -5 0
-6 -11 0
11 6 0
1 -2 0
3 -2 0
2 -1 -3 0
-2 -4 0
4 2 0
11 -14 0
13 -14 0
14 -11 -13 0
-14 -15 0
15 14 0
12 -10 0
11 -10 0
10 -12 -11 0
-10 -9 0
9 10 0
9 -16 0
15 -16 0
16 -9 -15 0
-16 -17 0
17 16 0
4 -7 0
9 -7 0
7 -4 -9 0
-7 -8 0
8 7 0
